(set-logic QF_LRA)
(declare-fun X0 () Real )
(declare-fun Y0 () Real )
(declare-fun X1 () Real )
(declare-fun Y1 () Real )
(declare-fun X2 () Real )
(declare-fun Y2 () Real )
(declare-fun X3 () Real )
(declare-fun Y3 () Real )
(declare-fun X4 () Real )
(declare-fun Y4 () Real )
(declare-fun X5 () Real )
(declare-fun Y5 () Real )
(declare-fun X6 () Real )
(declare-fun Y6 () Real )
(declare-fun X7 () Real )
(declare-fun Y7 () Real )
(declare-fun X8 () Real )
(declare-fun Y8 () Real )
(declare-fun X9 () Real )
(declare-fun Y9 () Real )
(declare-fun X10 () Real )
(declare-fun Y10 () Real )
(declare-fun X11 () Real )
(declare-fun Y11 () Real )
(declare-fun Z () Real )
(declare-fun k () Real )
(assert (let
(( $goal (>= Z k) ))
(let
((
$phi ( and 
( or ( <= ( + X0 46 ) X1 )  ( <= ( + X1 23 ) X0 )  ( <= ( + Y0 61 ) Y1 )  ( <= ( + Y1 65 ) Y0 )  )
( or ( <= ( + X0 46 ) X2 )  ( <= ( + X2 12 ) X0 )  ( <= ( + Y0 61 ) Y2 )  ( <= ( + Y2 12 ) Y0 )  )
( or ( <= ( + X0 46 ) X3 )  ( <= ( + X3 62 ) X0 )  ( <= ( + Y0 61 ) Y3 )  ( <= ( + Y3 51 ) Y0 )  )
( or ( <= ( + X0 46 ) X4 )  ( <= ( + X4 96 ) X0 )  ( <= ( + Y0 61 ) Y4 )  ( <= ( + Y4 18 ) Y0 )  )
( or ( <= ( + X0 46 ) X5 )  ( <= ( + X5 98 ) X0 )  ( <= ( + Y0 61 ) Y5 )  ( <= ( + Y5 40 ) Y0 )  )
( or ( <= ( + X0 46 ) X6 )  ( <= ( + X6 99 ) X0 )  ( <= ( + Y0 61 ) Y6 )  ( <= ( + Y6 20 ) Y0 )  )
( or ( <= ( + X0 46 ) X7 )  ( <= ( + X7 66 ) X0 )  ( <= ( + Y0 61 ) Y7 )  ( <= ( + Y7 7 ) Y0 )  )
( or ( <= ( + X0 46 ) X8 )  ( <= ( + X8 2 ) X0 )  ( <= ( + Y0 61 ) Y8 )  ( <= ( + Y8 10 ) Y0 )  )
( or ( <= ( + X0 46 ) X9 )  ( <= ( + X9 84 ) X0 )  ( <= ( + Y0 61 ) Y9 )  ( <= ( + Y9 24 ) Y0 )  )
( or ( <= ( + X0 46 ) X10 )  ( <= ( + X10 2 ) X0 )  ( <= ( + Y0 61 ) Y10 )  ( <= ( + Y10 57 ) Y0 )  )
( or ( <= ( + X0 46 ) X11 )  ( <= ( + X11 19 ) X0 )  ( <= ( + Y0 61 ) Y11 )  ( <= ( + Y11 12 ) Y0 )  )
( or ( <= ( + X1 23 ) X2 )  ( <= ( + X2 12 ) X1 )  ( <= ( + Y1 65 ) Y2 )  ( <= ( + Y2 12 ) Y1 )  )
( or ( <= ( + X1 23 ) X3 )  ( <= ( + X3 62 ) X1 )  ( <= ( + Y1 65 ) Y3 )  ( <= ( + Y3 51 ) Y1 )  )
( or ( <= ( + X1 23 ) X4 )  ( <= ( + X4 96 ) X1 )  ( <= ( + Y1 65 ) Y4 )  ( <= ( + Y4 18 ) Y1 )  )
( or ( <= ( + X1 23 ) X5 )  ( <= ( + X5 98 ) X1 )  ( <= ( + Y1 65 ) Y5 )  ( <= ( + Y5 40 ) Y1 )  )
( or ( <= ( + X1 23 ) X6 )  ( <= ( + X6 99 ) X1 )  ( <= ( + Y1 65 ) Y6 )  ( <= ( + Y6 20 ) Y1 )  )
( or ( <= ( + X1 23 ) X7 )  ( <= ( + X7 66 ) X1 )  ( <= ( + Y1 65 ) Y7 )  ( <= ( + Y7 7 ) Y1 )  )
( or ( <= ( + X1 23 ) X8 )  ( <= ( + X8 2 ) X1 )  ( <= ( + Y1 65 ) Y8 )  ( <= ( + Y8 10 ) Y1 )  )
( or ( <= ( + X1 23 ) X9 )  ( <= ( + X9 84 ) X1 )  ( <= ( + Y1 65 ) Y9 )  ( <= ( + Y9 24 ) Y1 )  )
( or ( <= ( + X1 23 ) X10 )  ( <= ( + X10 2 ) X1 )  ( <= ( + Y1 65 ) Y10 )  ( <= ( + Y10 57 ) Y1 )  )
( or ( <= ( + X1 23 ) X11 )  ( <= ( + X11 19 ) X1 )  ( <= ( + Y1 65 ) Y11 )  ( <= ( + Y11 12 ) Y1 )  )
( or ( <= ( + X2 12 ) X3 )  ( <= ( + X3 62 ) X2 )  ( <= ( + Y2 12 ) Y3 )  ( <= ( + Y3 51 ) Y2 )  )
( or ( <= ( + X2 12 ) X4 )  ( <= ( + X4 96 ) X2 )  ( <= ( + Y2 12 ) Y4 )  ( <= ( + Y4 18 ) Y2 )  )
( or ( <= ( + X2 12 ) X5 )  ( <= ( + X5 98 ) X2 )  ( <= ( + Y2 12 ) Y5 )  ( <= ( + Y5 40 ) Y2 )  )
( or ( <= ( + X2 12 ) X6 )  ( <= ( + X6 99 ) X2 )  ( <= ( + Y2 12 ) Y6 )  ( <= ( + Y6 20 ) Y2 )  )
( or ( <= ( + X2 12 ) X7 )  ( <= ( + X7 66 ) X2 )  ( <= ( + Y2 12 ) Y7 )  ( <= ( + Y7 7 ) Y2 )  )
( or ( <= ( + X2 12 ) X8 )  ( <= ( + X8 2 ) X2 )  ( <= ( + Y2 12 ) Y8 )  ( <= ( + Y8 10 ) Y2 )  )
( or ( <= ( + X2 12 ) X9 )  ( <= ( + X9 84 ) X2 )  ( <= ( + Y2 12 ) Y9 )  ( <= ( + Y9 24 ) Y2 )  )
( or ( <= ( + X2 12 ) X10 )  ( <= ( + X10 2 ) X2 )  ( <= ( + Y2 12 ) Y10 )  ( <= ( + Y10 57 ) Y2 )  )
( or ( <= ( + X2 12 ) X11 )  ( <= ( + X11 19 ) X2 )  ( <= ( + Y2 12 ) Y11 )  ( <= ( + Y11 12 ) Y2 )  )
( or ( <= ( + X3 62 ) X4 )  ( <= ( + X4 96 ) X3 )  ( <= ( + Y3 51 ) Y4 )  ( <= ( + Y4 18 ) Y3 )  )
( or ( <= ( + X3 62 ) X5 )  ( <= ( + X5 98 ) X3 )  ( <= ( + Y3 51 ) Y5 )  ( <= ( + Y5 40 ) Y3 )  )
( or ( <= ( + X3 62 ) X6 )  ( <= ( + X6 99 ) X3 )  ( <= ( + Y3 51 ) Y6 )  ( <= ( + Y6 20 ) Y3 )  )
( or ( <= ( + X3 62 ) X7 )  ( <= ( + X7 66 ) X3 )  ( <= ( + Y3 51 ) Y7 )  ( <= ( + Y7 7 ) Y3 )  )
( or ( <= ( + X3 62 ) X8 )  ( <= ( + X8 2 ) X3 )  ( <= ( + Y3 51 ) Y8 )  ( <= ( + Y8 10 ) Y3 )  )
( or ( <= ( + X3 62 ) X9 )  ( <= ( + X9 84 ) X3 )  ( <= ( + Y3 51 ) Y9 )  ( <= ( + Y9 24 ) Y3 )  )
( or ( <= ( + X3 62 ) X10 )  ( <= ( + X10 2 ) X3 )  ( <= ( + Y3 51 ) Y10 )  ( <= ( + Y10 57 ) Y3 )  )
( or ( <= ( + X3 62 ) X11 )  ( <= ( + X11 19 ) X3 )  ( <= ( + Y3 51 ) Y11 )  ( <= ( + Y11 12 ) Y3 )  )
( or ( <= ( + X4 96 ) X5 )  ( <= ( + X5 98 ) X4 )  ( <= ( + Y4 18 ) Y5 )  ( <= ( + Y5 40 ) Y4 )  )
( or ( <= ( + X4 96 ) X6 )  ( <= ( + X6 99 ) X4 )  ( <= ( + Y4 18 ) Y6 )  ( <= ( + Y6 20 ) Y4 )  )
( or ( <= ( + X4 96 ) X7 )  ( <= ( + X7 66 ) X4 )  ( <= ( + Y4 18 ) Y7 )  ( <= ( + Y7 7 ) Y4 )  )
( or ( <= ( + X4 96 ) X8 )  ( <= ( + X8 2 ) X4 )  ( <= ( + Y4 18 ) Y8 )  ( <= ( + Y8 10 ) Y4 )  )
( or ( <= ( + X4 96 ) X9 )  ( <= ( + X9 84 ) X4 )  ( <= ( + Y4 18 ) Y9 )  ( <= ( + Y9 24 ) Y4 )  )
( or ( <= ( + X4 96 ) X10 )  ( <= ( + X10 2 ) X4 )  ( <= ( + Y4 18 ) Y10 )  ( <= ( + Y10 57 ) Y4 )  )
( or ( <= ( + X4 96 ) X11 )  ( <= ( + X11 19 ) X4 )  ( <= ( + Y4 18 ) Y11 )  ( <= ( + Y11 12 ) Y4 )  )
( or ( <= ( + X5 98 ) X6 )  ( <= ( + X6 99 ) X5 )  ( <= ( + Y5 40 ) Y6 )  ( <= ( + Y6 20 ) Y5 )  )
( or ( <= ( + X5 98 ) X7 )  ( <= ( + X7 66 ) X5 )  ( <= ( + Y5 40 ) Y7 )  ( <= ( + Y7 7 ) Y5 )  )
( or ( <= ( + X5 98 ) X8 )  ( <= ( + X8 2 ) X5 )  ( <= ( + Y5 40 ) Y8 )  ( <= ( + Y8 10 ) Y5 )  )
( or ( <= ( + X5 98 ) X9 )  ( <= ( + X9 84 ) X5 )  ( <= ( + Y5 40 ) Y9 )  ( <= ( + Y9 24 ) Y5 )  )
( or ( <= ( + X5 98 ) X10 )  ( <= ( + X10 2 ) X5 )  ( <= ( + Y5 40 ) Y10 )  ( <= ( + Y10 57 ) Y5 )  )
( or ( <= ( + X5 98 ) X11 )  ( <= ( + X11 19 ) X5 )  ( <= ( + Y5 40 ) Y11 )  ( <= ( + Y11 12 ) Y5 )  )
( or ( <= ( + X6 99 ) X7 )  ( <= ( + X7 66 ) X6 )  ( <= ( + Y6 20 ) Y7 )  ( <= ( + Y7 7 ) Y6 )  )
( or ( <= ( + X6 99 ) X8 )  ( <= ( + X8 2 ) X6 )  ( <= ( + Y6 20 ) Y8 )  ( <= ( + Y8 10 ) Y6 )  )
( or ( <= ( + X6 99 ) X9 )  ( <= ( + X9 84 ) X6 )  ( <= ( + Y6 20 ) Y9 )  ( <= ( + Y9 24 ) Y6 )  )
( or ( <= ( + X6 99 ) X10 )  ( <= ( + X10 2 ) X6 )  ( <= ( + Y6 20 ) Y10 )  ( <= ( + Y10 57 ) Y6 )  )
( or ( <= ( + X6 99 ) X11 )  ( <= ( + X11 19 ) X6 )  ( <= ( + Y6 20 ) Y11 )  ( <= ( + Y11 12 ) Y6 )  )
( or ( <= ( + X7 66 ) X8 )  ( <= ( + X8 2 ) X7 )  ( <= ( + Y7 7 ) Y8 )  ( <= ( + Y8 10 ) Y7 )  )
( or ( <= ( + X7 66 ) X9 )  ( <= ( + X9 84 ) X7 )  ( <= ( + Y7 7 ) Y9 )  ( <= ( + Y9 24 ) Y7 )  )
( or ( <= ( + X7 66 ) X10 )  ( <= ( + X10 2 ) X7 )  ( <= ( + Y7 7 ) Y10 )  ( <= ( + Y10 57 ) Y7 )  )
( or ( <= ( + X7 66 ) X11 )  ( <= ( + X11 19 ) X7 )  ( <= ( + Y7 7 ) Y11 )  ( <= ( + Y11 12 ) Y7 )  )
( or ( <= ( + X8 2 ) X9 )  ( <= ( + X9 84 ) X8 )  ( <= ( + Y8 10 ) Y9 )  ( <= ( + Y9 24 ) Y8 )  )
( or ( <= ( + X8 2 ) X10 )  ( <= ( + X10 2 ) X8 )  ( <= ( + Y8 10 ) Y10 )  ( <= ( + Y10 57 ) Y8 )  )
( or ( <= ( + X8 2 ) X11 )  ( <= ( + X11 19 ) X8 )  ( <= ( + Y8 10 ) Y11 )  ( <= ( + Y11 12 ) Y8 )  )
( or ( <= ( + X9 84 ) X10 )  ( <= ( + X10 2 ) X9 )  ( <= ( + Y9 24 ) Y10 )  ( <= ( + Y10 57 ) Y9 )  )
( or ( <= ( + X9 84 ) X11 )  ( <= ( + X11 19 ) X9 )  ( <= ( + Y9 24 ) Y11 )  ( <= ( + Y11 12 ) Y9 )  )
( or ( <= ( + X10 2 ) X11 )  ( <= ( + X11 19 ) X10 )  ( <= ( + Y10 57 ) Y11 )  ( <= ( + Y11 12 ) Y10 )  )
( >= X0 0)
( <= ( + X0 46) Z)
( >= Y0 0)
( <= ( + Y0 61 ) 100)
( >= X1 0)
( <= ( + X1 23) Z)
( >= Y1 0)
( <= ( + Y1 65 ) 100)
( >= X2 0)
( <= ( + X2 12) Z)
( >= Y2 0)
( <= ( + Y2 12 ) 100)
( >= X3 0)
( <= ( + X3 62) Z)
( >= Y3 0)
( <= ( + Y3 51 ) 100)
( >= X4 0)
( <= ( + X4 96) Z)
( >= Y4 0)
( <= ( + Y4 18 ) 100)
( >= X5 0)
( <= ( + X5 98) Z)
( >= Y5 0)
( <= ( + Y5 40 ) 100)
( >= X6 0)
( <= ( + X6 99) Z)
( >= Y6 0)
( <= ( + Y6 20 ) 100)
( >= X7 0)
( <= ( + X7 66) Z)
( >= Y7 0)
( <= ( + Y7 7 ) 100)
( >= X8 0)
( <= ( + X8 2) Z)
( >= Y8 0)
( <= ( + Y8 10 ) 100)
( >= X9 0)
( <= ( + X9 84) Z)
( >= Y9 0)
( <= ( + Y9 24 ) 100)
( >= X10 0)
( <= ( + X10 2) Z)
( >= Y10 0)
( <= ( + Y10 57 ) 100)
( >= X11 0)
( <= ( + X11 19) Z)
( >= Y11 0)
( <= ( + Y11 12 ) 100)
) )
)(=> $phi $goal))))